n = 3;

m_names = ["Adam", "Bartek", "Cezary"];
w_names = ["Anna", "Beata", "Celina"];

m_ranks = array2d(1..3, 1..3, [
  1, 2, 3,  % Adam
  3, 1, 2,  % Bartek
  2, 3, 1   % Cezary
]);

w_ranks = array2d(1..3, 1..3, [
  2, 3, 1,  % Anna
  1, 2, 3,  % Beata
  3, 1, 2   % Celina
]);